examples/data/binpacking/Istanze/BPPC_5_2_5.txt
60 1000
1 379 22
2 293
3 328
4 470
5 251
6 279 7 11 20 22 29 37 40 41 46 48 51 56 58 59
7 411 11 20 22 29 37 40 41 46 48 51 56 58 59
8 253
9 336
10 414
11 276 20 22 29 37 46 48 58 59
12 310
13 418
14 286
15 296
16 378
17 296 22 46
18 326
19 428
20 281 22 29 33 37 40 41 46 48 51 56 58 59
21 291
22 455 29 33 37 40 41 46 48 51 56 58 59
23 264
24 281
25 494
26 252
27 254
28 478
29 258 37 40 41 46 48 51 56 58 59
30 264
31 409
32 287
33 304 46
34 425
35 256
36 319
37 402 40 41 46 48 51 56 58 59
38 252
39 346
40 403 46 48 58 59
41 283 46 48 58 59
42 314
43 401
44 284
45 315
46 434 48 51 56 58 59
47 282
48 284 51 56 58 59
49 496
50 251
51 253 58 59
52 491
53 253
54 256
55 498
56 250 58 59
57 252
58 379 59
59 264
60 357
